17	4
12	12	9	9	
0	0	0	0	0	3	2	3	4	
8	4	0	0	0	3	5	6	15	
2	0	9	0	0	3	7	17	17	
1	0	0	0	5	2	8	13	
8	0	9	0	0	3	9	10	14	
250	0	10	0	0	2	17	17	
125	0	0	0	6	2	8	13	
100	2	0	0	0	3	10	11	16	
100	0	0	0	9	3	16	17	17	
125	3	0	0	0	3	17	17	17	
25	0	0	0	2	2	12	17	
225	4	0	0	0	3	14	17	17	
10	3	0	0	0	1	17	
4	3	0	0	0	1	17	
3	0	0	0	8	3	17	17	17	
1	0	0	0	2	1	17	
0	0	0	0	0	0	
